# Solution for model P4
# Objective value = 19202440
vessel1 46
vessel2 57
trips(1,1) 286
trips(2,1) 37
trips(3,1) 286
trips(4,1) 249
trips(5,1) 0
trips(6,1) 0
trips(7,1) 0
trips(8,1) 0
trips(9,1) 0
trips(10,1) 14
trips(11,1) 0
trips(12,1) 0
trips(6,2) 125
trips(7,2) 0
trips(8,2) 18
trips(9,2) 429
trips(10,2) 279
trips(11,2) 0
trips(12,2) 0
dLoaded(1) 12006900
dLoaded(2) 9408400
dEmpty(1) 304500
dEmpty(2) 36000
crewCost1 0
crewCost2 0
